
Welcome to IBM(R) ILOG(R) CPLEX(R) Interactive Optimizer 22.1.1.0
  with Simplex, Mixed Integer & Barrier Optimizers
5725-A06 5725-A29 5724-Y48 5724-Y49 5724-Y54 5724-Y55 5655-Y21
Copyright IBM Corp. 1988, 2022.  All Rights Reserved.

Type 'help' for a list of available commands.
Type 'help' followed by a command name for more
information on commands.

CPLEX> Selected objective sense:  MINIMIZE
Selected objective  name:  00000000
Selected RHS        name:  RHS1
Selected bound      name:  BOUND
Problem 'ee.mps' read.
Read time = 0.03 sec. (3.14 ticks)
CPLEX> New value for time limit in seconds: 7200
CPLEX> New value for parallel optimization mode: -1
CPLEX> New value for default parallel thread count: 40
CPLEX> New value for mixed integer optimality gap tolerance: 1e-13
CPLEX> Version identifier: 22.1.1.0 | 2022-11-28 | 9160aff4d
CPXPARAM_Threads                                 40
CPXPARAM_Parallel                                -1
CPXPARAM_TimeLimit                               7200
CPXPARAM_MIP_Tolerances_MIPGap                   1e-13
Found incumbent of value 0.000000 after 0.00 sec. (0.31 ticks)
Tried aggregator 2 times.
MIP Presolve eliminated 182 rows and 2745 columns.
MIP Presolve modified 5862 coefficients.
Aggregator did 713 substitutions.
Reduced MIP has 3623 rows, 7739 columns, and 28643 nonzeros.
Reduced MIP has 7739 binaries, 0 generals, 0 SOSs, and 0 indicators.
Presolve time = 0.07 sec. (68.56 ticks)
Probing time = 0.03 sec. (5.29 ticks)
Tried aggregator 1 time.
Detecting symmetries...
Reduced MIP has 3623 rows, 7739 columns, and 28643 nonzeros.
Reduced MIP has 7739 binaries, 0 generals, 0 SOSs, and 0 indicators.
Presolve time = 0.02 sec. (21.85 ticks)
Probing time = 0.02 sec. (5.10 ticks)
Clique table members: 18551.
MIP emphasis: balance optimality and feasibility.
MIP search method: dynamic search.
Parallel mode: opportunistic, using up to 40 threads.
Root relaxation solution time = 0.10 sec. (86.34 ticks)

        Nodes                                         Cuts/
   Node  Left     Objective  IInf  Best Integer    Best Bound    ItCnt     Gap

*     0+    0                            0.0000  -1.31000e+13              --- 
*     0+    0                      -2.20000e+12  -1.31000e+13           495.46%
*     0+    0                      -3.30000e+12  -1.31000e+13           296.97%
*     0+    0                      -4.40000e+12  -1.31000e+13           197.73%
*     0+    0                      -5.50000e+12  -1.31000e+13           138.18%
      0     0  -1.30900e+13    59  -5.50000e+12  -1.30900e+13     2219  138.00%
      0     0  -1.30900e+13    90  -5.50000e+12      Cuts: 79     2497  138.00%
*     0+    0                      -1.30900e+13  -1.30900e+13             0.00%
      0     0  -1.30900e+13   142  -1.30900e+13      Cuts: 62     3291    0.00%
*     0+    0                      -1.30900e+13  -1.30900e+13             0.00%
*     0+    0                      -1.30900e+13  -1.30900e+13             0.00%

Repeating presolve.
Tried aggregator 2 times.
MIP Presolve eliminated 1843 rows and 4268 columns.
MIP Presolve modified 19 coefficients.
Aggregator did 727 substitutions.
Reduced MIP has 1053 rows, 2660 columns, and 9260 nonzeros.
Reduced MIP has 2660 binaries, 0 generals, 0 SOSs, and 0 indicators.
Presolve time = 0.04 sec. (38.29 ticks)
Probing fixed 4 vars, tightened 0 bounds.
Probing time = 0.03 sec. (28.08 ticks)
Tried aggregator 1 time.
Detecting symmetries...
MIP Presolve eliminated 18 rows and 16 columns.
Reduced MIP has 1035 rows, 2642 columns, and 9202 nonzeros.
Reduced MIP has 2642 binaries, 0 generals, 0 SOSs, and 0 indicators.
Presolve time = 0.01 sec. (10.91 ticks)
Represolve time = 0.09 sec. (91.07 ticks)
Probing time = 0.00 sec. (3.83 ticks)
Clique table members: 6269.
MIP emphasis: balance optimality and feasibility.
MIP search method: dynamic search.
Parallel mode: opportunistic, using up to 40 threads.
Root relaxation solution time = 0.04 sec. (21.81 ticks)

        Nodes                                         Cuts/
   Node  Left     Objective  IInf  Best Integer    Best Bound    ItCnt     Gap

*     0+    0                      -1.30900e+13  -1.30900e+13             0.00%
      0     0  -1.30900e+13    73  -1.30900e+13  -1.30900e+13     4108    0.00%
      0     0  -1.30900e+13    97  -1.30900e+13      Cuts: 52     4267    0.00%
      0     0  -1.30900e+13   112  -1.30900e+13      Cuts: 54     4665    0.00%
*     0+    0                      -1.30900e+13  -1.30900e+13             0.00%
      0     2  -1.30900e+13    98  -1.30900e+13  -1.30900e+13     4665    0.00%
Elapsed time = 1.96 sec. (1431.69 ticks, tree = 0.02 MB, solutions = 10)

GUB cover cuts applied:  1
Clique cuts applied:  26
Cover cuts applied:  204
Flow cuts applied:  1
Mixed integer rounding cuts applied:  10
Zero-half cuts applied:  9
Lift and project cuts applied:  9
Gomory fractional cuts applied:  16

Root node processing (before b&c):
  Real time             =    1.76 sec. (1431.59 ticks)
Parallel b&c, 40 threads:
  Real time             =    0.61 sec. (187.07 ticks)
  Sync time (average)   =    0.28 sec.
  Wait time (average)   =    0.00 sec.
                          ------------
Total (root+branch&cut) =    2.37 sec. (1618.66 ticks)

Solution pool: 10 solutions saved.

MIP - Integer optimal solution:  Objective = -1.3089999990e+13
Solution time =    2.41 sec.  Iterations = 44025  Nodes = 707
Deterministic time = 1618.69 ticks  (671.94 ticks/sec)

CPLEX> Solution 'p11' written to file 'ee.sol'.
CPLEX> 